n_agents = 4;

% transfered from the photo1.dzn instance from the MZN benchmark
friends = [
{1,3},    % 01
{3,4}, % 02
{}, % 03
{1},   % 04
];

enemies = [
{2,4},    % 01
{1,2}, % 02
{4,1}, % 03
{3,2},   % 04
];